[2026-03-24T00:33:22.238Z] Pipeline "set_set_set_s001_g006" → 2026_03_24_00_33_22_set_set_set_s001_g006_max.sol
Set parameter WLSAccessID
Set parameter WLSSecret
Set parameter LicenseID to value 2792458
Set parameter LogFile to value "gurobi.log"
Using license file /root/gurobi.lic
Academic license 2792458 - for non-commercial use only - registered to an___@studenti.unipg.it

Gurobi Optimizer version 13.0.1 build v13.0.1rc0 (linux64 - "Ubuntu 24.04.4 LTS")
Copyright (c) 2026, Gurobi Optimization, LLC

Warning: Duplicate section found (read 'binary') - Is a variable name equal to an LP file format keyword?
Warning: Duplicate section found (read 'binary') - Is a variable name equal to an LP file format keyword?
Warning: Duplicate section found (read 'binary') - Is a variable name equal to an LP file format keyword?
Warning: Duplicate section found (read 'binary') - Is a variable name equal to an LP file format keyword?
Warning: Duplicate section found (read 'binary') - Is a variable name equal to an LP file format keyword?
Warning: Duplicate section found (read 'binary') - Is a variable name equal to an LP file format keyword?
Warning: Duplicate section found (read 'binary') - Is a variable name equal to an LP file format keyword?
Warning: Duplicate section found (read 'binary') - Is a variable name equal to an LP file format keyword?
Warning: Duplicate section found (read 'binary') - Is a variable name equal to an LP file format keyword?
Warning: Duplicate section found (read 'binary') - Is a variable name equal to an LP file format keyword?
Warning: Further warnings of this type will be omitted.
Read LP format model from file /root/bgw/data/uploads/2026_03_24_00_33_22_set_set_set_s001_g006_max.lp
Reading time = 0.00 seconds
: 184 rows, 46 columns, 458 nonzeros

Using Gurobi shared library /opt/gurobi1301/linux64/lib/libgurobi.so.13.0.1

CPU model: AMD EPYC-Genoa Processor, instruction set [SSE2|AVX|AVX2|AVX512]
Thread count: 16 physical cores, 16 logical processors, using up to 16 threads

Academic license 2792458 - for non-commercial use only - registered to an___@studenti.unipg.it
Optimize a model with 184 rows, 46 columns and 458 nonzeros (Max)
Model fingerprint: 0x28eb0da8
Model has 10 linear objective coefficients
Variable types: 16 continuous, 30 integer (30 binary)
Coefficient statistics:
  Matrix range     [1e+00, 7e+00]
  Objective range  [1e+00, 1e+00]
  Bounds range     [1e+00, 1e+00]
  RHS range        [1e+00, 8e+00]

Found heuristic solution: objective 10.0000000
Presolve removed 116 rows and 14 columns
Presolve time: 0.00s
Presolved: 68 rows, 32 columns, 222 nonzeros
Variable types: 0 continuous, 32 integer (26 binary)
Found heuristic solution: objective 19.0000000

Root relaxation: objective 4.600000e+01, 24 iterations, 0.00 seconds (0.00 work units)

    Nodes    |    Current Node    |     Objective Bounds      |     Work
 Expl Unexpl |  Obj  Depth IntInf | Incumbent    BestBd   Gap | It/Node Time

     0     0   46.00000    0   14   19.00000   46.00000   142%     -    0s
H    0     0                      22.0000000   46.00000   109%     -    0s
H    0     0                      25.0000000   46.00000  84.0%     -    0s
H    0     0                      28.0000000   46.00000  64.3%     -    0s
     0     0   46.00000    0   19   28.00000   46.00000  64.3%     -    0s
     0     0   43.00000    0   20   28.00000   43.00000  53.6%     -    0s
     0     0   43.00000    0   14   28.00000   43.00000  53.6%     -    0s
     0     0   42.70000    0   20   28.00000   42.70000  52.5%     -    0s
     0     0   42.70000    0   14   28.00000   42.70000  52.5%     -    0s
     0     0   42.14286    0   20   28.00000   42.14286  50.5%     -    0s
     0     0   42.00000    0   18   28.00000   42.00000  50.0%     -    0s
     0     0   42.00000    0   14   28.00000   42.00000  50.0%     -    0s
     0     0   40.00000    0   15   28.00000   40.00000  42.9%     -    0s
     0     0   40.00000    0   21   28.00000   40.00000  42.9%     -    0s
     0     0   40.00000    0   17   28.00000   40.00000  42.9%     -    0s
     0     0   40.00000    0   17   28.00000   40.00000  42.9%     -    0s
     0     0   40.00000    0   17   28.00000   40.00000  42.9%     -    0s
     0     0   40.00000    0   17   28.00000   40.00000  42.9%     -    0s
     0     0   40.00000    0   14   28.00000   40.00000  42.9%     -    0s
     0     2   40.00000    0   14   28.00000   40.00000  42.9%     -    0s

Cutting planes:
  Gomory: 5
  Cover: 1
  MIR: 3
  Inf proof: 3
  Zero half: 2

Explored 558 nodes (2317 simplex iterations) in 0.08 seconds (0.02 work units)
Thread count was 16 (of 16 available processors)

Solution count 5: 28 25 22 ... 10

Optimal solution found (tolerance 1.00e-04)
Best objective 2.800000000000e+01, best bound 2.800000000000e+01, gap 0.0000%

Wrote result file '/root/bgw/data/results/2026_03_24_00_33_22_set_set_set_s001_g006_max.sol'

